(set-logic QF_NRA)
(set-info :source |Benchmarks generated from hycomp (https://es-static.fbk.eu/tools/hycomp/). BMC instances of non-linear hybrid automata taken from: Alessandro Cimatti, Sergio Mover, Stefano Tonetta, A quantifier-free SMT encoding of non-linear hybrid automata, FMCAD 2012 and Alessandro Cimatti, Sergio Mover, Stefano Tonetta, Quantier-free encoding of invariants for Hybrid Systems, Formal Methods in System Design. This instance solves a BMC problem of depth 2 and uses the encoding obtained with quantifier elimination using qepcad encoding. Contacts: Sergio Mover (mover@fbk.eu), Stefano Tonetta (tonettas@fbk.eu), Alessandro Cimatti (cimatti@fbk.eu).|)
(set-info :smt-lib-version 2.0)
(set-info :category "industrial")
(set-info :status unsat)
;; MathSAT API call trace
;; generated on Mon Mar 19 10:45:25 2012
(declare-fun b.x__AT0 () Real)
(declare-fun b.speed_x__AT1 () Real)
(declare-fun b.y__AT2 () Real)
(declare-fun b.time__AT1 () Real)
(declare-fun g__AT0 () Real)
(declare-fun b.y__AT0 () Real)
(declare-fun b.EVENT.0__AT1 () Bool)
(declare-fun b.speed_y__AT1 () Real)
(declare-fun b.counter.0__AT2 () Bool)
(declare-fun b.delta__AT1 () Real)
(declare-fun b.counter.0__AT0 () Bool)
(declare-fun b.EVENT.1__AT1 () Bool)
(declare-fun b.counter.1__AT2 () Bool)
(declare-fun b.delta__AT0 () Real)
(declare-fun b.counter.1__AT0 () Bool)
(declare-fun b.counter.2__AT2 () Bool)
(declare-fun b.EVENT.0__AT0 () Bool)
(declare-fun b.x__AT1 () Real)
(declare-fun b.speed_x__AT2 () Real)
(declare-fun b.speed_y__AT2 () Real)
(declare-fun b.speed_y__AT0 () Real)
(declare-fun b.y__AT3 () Real)
(declare-fun b.event_is_timed__AT0 () Bool)
(declare-fun b.event_is_timed__AT2 () Bool)
(declare-fun b.counter.3__AT0 () Bool)
(declare-fun b.counter.3__AT2 () Bool)
(declare-fun b.time__AT2 () Real)
(declare-fun b.delta__AT2 () Real)
(declare-fun speed_loss__AT0 () Real)
(declare-fun b.x__AT2 () Real)
(declare-fun b.y__AT1 () Real)
(declare-fun b.EVENT.0__AT2 () Bool)
(declare-fun b.EVENT.1__AT0 () Bool)
(declare-fun b.event_is_timed__AT1 () Bool)
(declare-fun b.counter.0__AT1 () Bool)
(declare-fun b.EVENT.1__AT2 () Bool)
(declare-fun b.speed_x__AT0 () Real)
(declare-fun b.counter.1__AT1 () Bool)
(declare-fun b.time__AT0 () Real)
(declare-fun b.counter.2__AT0 () Bool)
(declare-fun b.counter.2__AT1 () Bool)
(declare-fun b.counter.3__AT1 () Bool)
(assert (let ((.def_511 (= b.y__AT2 b.y__AT3)))
(let ((.def_512 (not .def_511)))
(let ((.def_484 (* 2.0 b.delta__AT2)))
(let ((.def_485 (* b.speed_y__AT2 .def_484)))
(let ((.def_481 (* b.delta__AT2 b.delta__AT2)))
(let ((.def_482 (* g__AT0 .def_481)))
(let ((.def_483 (* (- 1.0) .def_482)))
(let ((.def_486 (+ .def_483 .def_485)))
(let ((.def_487 (* 2.0 b.y__AT2)))
(let ((.def_489 (+ .def_487 .def_486)))
(let ((.def_504 (<= .def_489 0.0 )))
(let ((.def_505 (not .def_504)))
(let ((.def_501 (* b.speed_y__AT2 b.speed_y__AT2)))
(let ((.def_500 (* g__AT0 .def_487)))
(let ((.def_502 (+ .def_500 .def_501)))
(let ((.def_503 (<= .def_502 0.0 )))
(let ((.def_506 (and .def_503 .def_505)))
(let ((.def_458 (not b.EVENT.0__AT2)))
(let ((.def_456 (not b.EVENT.1__AT2)))
(let ((.def_474 (and .def_456 .def_458)))
(let ((.def_507 (and .def_474 .def_506)))
(let ((.def_494 (* b.speed_y__AT2 b.delta__AT2)))
(let ((.def_495 (+ .def_487 .def_494)))
(let ((.def_496 (<= 0.0 .def_495)))
(let ((.def_479 (<= 0.0 b.speed_y__AT2)))
(let ((.def_493 (not .def_479)))
(let ((.def_497 (and .def_493 .def_496)))
(let ((.def_490 (<= 0.0 .def_489)))
(let ((.def_498 (and .def_490 .def_497)))
(let ((.def_461 (<= 0.0 b.y__AT2)))
(let ((.def_480 (and .def_461 .def_479)))
(let ((.def_491 (and .def_480 .def_490)))
(let ((.def_477 (<= 0.0 b.delta__AT2)))
(let ((.def_478 (not .def_477)))
(let ((.def_492 (or .def_478 .def_491)))
(let ((.def_499 (or .def_492 .def_498)))
(let ((.def_508 (or .def_499 .def_507)))
(let ((.def_509 (not .def_508)))
(let ((.def_513 (or .def_509 .def_512)))
(let ((.def_475 (not .def_474)))
(let ((.def_514 (or .def_475 .def_513)))
(let ((.def_172 (not b.counter.0__AT1)))
(let ((.def_160 (not b.counter.1__AT1)))
(let ((.def_466 (and .def_160 .def_172)))
(let ((.def_470 (or b.counter.3__AT1 .def_466)))
(let ((.def_467 (or b.counter.2__AT1 .def_466)))
(let ((.def_167 (not b.counter.2__AT1)))
(let ((.def_465 (or .def_160 .def_167)))
(let ((.def_468 (and .def_465 .def_467)))
(let ((.def_182 (not b.counter.3__AT1)))
(let ((.def_469 (or .def_182 .def_468)))
(let ((.def_471 (and .def_469 .def_470)))
(let ((.def_67 (<= speed_loss__AT0 (/ 1 2))))
(let ((.def_64 (<= (/ 1 10) speed_loss__AT0)))
(let ((.def_68 (and .def_64 .def_67)))
(let ((.def_59 (<= g__AT0 10.0 )))
(let ((.def_58 (<= 8.0 g__AT0)))
(let ((.def_60 (and .def_58 .def_59)))
(let ((.def_69 (and .def_60 .def_68)))
(let ((.def_462 (and .def_69 .def_461)))
(let ((.def_459 (or .def_456 .def_458)))
(let ((.def_9 (not b.counter.0__AT2)))
(let ((.def_6 (not b.counter.1__AT2)))
(let ((.def_449 (or .def_6 .def_9)))
(let ((.def_453 (or b.counter.3__AT2 .def_449)))
(let ((.def_450 (or b.counter.2__AT2 .def_449)))
(let ((.def_4 (not b.counter.2__AT2)))
(let ((.def_448 (or .def_4 .def_9)))
(let ((.def_451 (and .def_448 .def_450)))
(let ((.def_14 (not b.counter.3__AT2)))
(let ((.def_452 (or .def_14 .def_451)))
(let ((.def_454 (and .def_452 .def_453)))
(let ((.def_460 (and .def_454 .def_459)))
(let ((.def_463 (and .def_460 .def_462)))
(let ((.def_286 (<= 0.0 b.delta__AT1)))
(let ((.def_268 (not b.EVENT.0__AT1)))
(let ((.def_266 (not b.EVENT.1__AT1)))
(let ((.def_283 (and .def_266 .def_268)))
(let ((.def_284 (not .def_283)))
(let ((.def_444 (or .def_284 .def_286)))
(let ((.def_445 (or b.EVENT.1__AT1 .def_444)))
(let ((.def_394 (= b.counter.0__AT2 b.counter.0__AT1)))
(let ((.def_392 (= b.counter.1__AT2 b.counter.1__AT1)))
(let ((.def_390 (= b.counter.2__AT2 b.counter.2__AT1)))
(let ((.def_389 (= b.counter.3__AT2 b.counter.3__AT1)))
(let ((.def_391 (and .def_389 .def_390)))
(let ((.def_393 (and .def_391 .def_392)))
(let ((.def_395 (and .def_393 .def_394)))
(let ((.def_441 (or .def_284 .def_395)))
(let ((.def_442 (or b.EVENT.1__AT1 .def_441)))
(let ((.def_401 (= b.x__AT1 b.x__AT2)))
(let ((.def_320 (= b.y__AT1 b.y__AT2)))
(let ((.def_435 (and .def_320 .def_401)))
(let ((.def_335 (= b.speed_x__AT1 b.speed_x__AT2)))
(let ((.def_436 (and .def_335 .def_435)))
(let ((.def_388 (= b.speed_y__AT1 b.speed_y__AT2)))
(let ((.def_437 (and .def_388 .def_436)))
(let ((.def_432 (= b.delta__AT1 0.0 )))
(let ((.def_433 (and .def_283 .def_432)))
(let ((.def_434 (not .def_433)))
(let ((.def_438 (or .def_434 .def_437)))
(let ((.def_439 (or b.EVENT.1__AT1 .def_438)))
(let ((.def_412 (= b.time__AT1 b.time__AT2)))
(let ((.def_424 (and .def_401 .def_412)))
(let ((.def_425 (and .def_320 .def_424)))
(let ((.def_426 (and .def_335 .def_425)))
(let ((.def_427 (and .def_388 .def_426)))
(let ((.def_428 (and .def_395 .def_427)))
(let ((.def_429 (or .def_266 .def_428)))
(let ((.def_415 (* (- 1.0) b.time__AT2)))
(let ((.def_418 (+ b.delta__AT1 .def_415)))
(let ((.def_419 (+ b.time__AT1 .def_418)))
(let ((.def_420 (= .def_419 0.0 )))
(let ((.def_421 (or .def_284 .def_420)))
(let ((.def_422 (or b.EVENT.1__AT1 .def_421)))
(let ((.def_413 (or .def_283 .def_412)))
(let ((.def_414 (or b.EVENT.1__AT1 .def_413)))
(let ((.def_423 (and .def_414 .def_422)))
(let ((.def_430 (and .def_423 .def_429)))
(let ((.def_408 (= .def_284 b.event_is_timed__AT2)))
(let ((.def_406 (= b.event_is_timed__AT1 .def_283)))
(let ((.def_409 (and .def_406 .def_408)))
(let ((.def_396 (and .def_388 .def_395)))
(let ((.def_352 (= b.y__AT1 0.0 )))
(let ((.def_288 (<= 0.0 b.speed_y__AT1)))
(let ((.def_302 (not .def_288)))
(let ((.def_353 (and .def_302 .def_352)))
(let ((.def_397 (or .def_353 .def_396)))
(let ((.def_365 (or .def_9 b.counter.0__AT1)))
(let ((.def_364 (or b.counter.0__AT2 .def_172)))
(let ((.def_366 (and .def_364 .def_365)))
(let ((.def_367 (and .def_6 .def_366)))
(let ((.def_368 (or b.counter.1__AT1 .def_367)))
(let ((.def_363 (or b.counter.1__AT2 .def_160)))
(let ((.def_369 (and .def_363 .def_368)))
(let ((.def_380 (and .def_4 .def_369)))
(let ((.def_381 (or b.counter.2__AT1 .def_380)))
(let ((.def_375 (and .def_6 .def_172)))
(let ((.def_376 (or b.counter.1__AT1 .def_375)))
(let ((.def_377 (and .def_363 .def_376)))
(let ((.def_378 (and b.counter.2__AT2 .def_377)))
(let ((.def_379 (or .def_167 .def_378)))
(let ((.def_382 (and .def_379 .def_381)))
(let ((.def_383 (and b.counter.3__AT2 .def_382)))
(let ((.def_384 (or b.counter.3__AT1 .def_383)))
(let ((.def_370 (and b.counter.2__AT2 .def_369)))
(let ((.def_371 (or b.counter.2__AT1 .def_370)))
(let ((.def_359 (or b.counter.1__AT2 b.counter.1__AT1)))
(let ((.def_357 (and .def_6 b.counter.0__AT2)))
(let ((.def_358 (or .def_160 .def_357)))
(let ((.def_360 (and .def_358 .def_359)))
(let ((.def_361 (and .def_4 .def_360)))
(let ((.def_362 (or .def_167 .def_361)))
(let ((.def_372 (and .def_362 .def_371)))
(let ((.def_373 (and .def_14 .def_372)))
(let ((.def_374 (or .def_182 .def_373)))
(let ((.def_385 (and .def_374 .def_384)))
(let ((.def_155 (* (- 1.0) speed_loss__AT0)))
(let ((.def_156 (+ 1.0 .def_155)))
(let ((.def_145 (* (- 1.0) b.speed_y__AT1)))
(let ((.def_355 (* .def_145 .def_156)))
(let ((.def_356 (= b.speed_y__AT2 .def_355)))
(let ((.def_386 (and .def_356 .def_385)))
(let ((.def_354 (not .def_353)))
(let ((.def_387 (or .def_354 .def_386)))
(let ((.def_398 (and .def_387 .def_397)))
(let ((.def_399 (and .def_320 .def_398)))
(let ((.def_400 (and .def_335 .def_399)))
(let ((.def_402 (and .def_400 .def_401)))
(let ((.def_403 (or .def_283 .def_402)))
(let ((.def_404 (or b.EVENT.1__AT1 .def_403)))
(let ((.def_346 (* (- 1.0) b.speed_y__AT2)))
(let ((.def_118 (* (- 1.0) g__AT0)))
(let ((.def_344 (* .def_118 b.delta__AT1)))
(let ((.def_347 (+ .def_344 .def_346)))
(let ((.def_348 (+ b.speed_y__AT1 .def_347)))
(let ((.def_349 (= .def_348 0.0 )))
(let ((.def_339 (* (- 1.0) b.x__AT2)))
(let ((.def_337 (* b.speed_x__AT1 b.delta__AT1)))
(let ((.def_340 (+ .def_337 .def_339)))
(let ((.def_341 (+ b.x__AT1 .def_340)))
(let ((.def_342 (= .def_341 0.0 )))
(let ((.def_290 (* b.delta__AT1 b.delta__AT1)))
(let ((.def_119 (* (/ 1 2) .def_118)))
(let ((.def_325 (* .def_119 .def_290)))
(let ((.def_327 (* (- 1.0) b.y__AT2)))
(let ((.def_330 (+ .def_327 .def_325)))
(let ((.def_303 (* b.speed_y__AT1 b.delta__AT1)))
(let ((.def_331 (+ .def_303 .def_330)))
(let ((.def_332 (+ b.y__AT1 .def_331)))
(let ((.def_333 (= .def_332 0.0 )))
(let ((.def_336 (and .def_333 .def_335)))
(let ((.def_343 (and .def_336 .def_342)))
(let ((.def_350 (and .def_343 .def_349)))
(let ((.def_351 (or .def_284 .def_350)))
(let ((.def_405 (and .def_351 .def_404)))
(let ((.def_410 (and .def_405 .def_409)))
(let ((.def_431 (and .def_410 .def_430)))
(let ((.def_440 (and .def_431 .def_439)))
(let ((.def_443 (and .def_440 .def_442)))
(let ((.def_446 (and .def_443 .def_445)))
(let ((.def_447 (and .def_266 .def_446)))
(let ((.def_464 (and .def_447 .def_463)))
(let ((.def_472 (and .def_464 .def_471)))
(let ((.def_321 (not .def_320)))
(let ((.def_293 (* 2.0 b.delta__AT1)))
(let ((.def_294 (* b.speed_y__AT1 .def_293)))
(let ((.def_291 (* g__AT0 .def_290)))
(let ((.def_292 (* (- 1.0) .def_291)))
(let ((.def_295 (+ .def_292 .def_294)))
(let ((.def_296 (* 2.0 b.y__AT1)))
(let ((.def_298 (+ .def_296 .def_295)))
(let ((.def_313 (<= .def_298 0.0 )))
(let ((.def_314 (not .def_313)))
(let ((.def_310 (* b.speed_y__AT1 b.speed_y__AT1)))
(let ((.def_309 (* g__AT0 .def_296)))
(let ((.def_311 (+ .def_309 .def_310)))
(let ((.def_312 (<= .def_311 0.0 )))
(let ((.def_315 (and .def_312 .def_314)))
(let ((.def_316 (and .def_283 .def_315)))
(let ((.def_304 (+ .def_296 .def_303)))
(let ((.def_305 (<= 0.0 .def_304)))
(let ((.def_306 (and .def_302 .def_305)))
(let ((.def_299 (<= 0.0 .def_298)))
(let ((.def_307 (and .def_299 .def_306)))
(let ((.def_271 (<= 0.0 b.y__AT1)))
(let ((.def_289 (and .def_271 .def_288)))
(let ((.def_300 (and .def_289 .def_299)))
(let ((.def_287 (not .def_286)))
(let ((.def_301 (or .def_287 .def_300)))
(let ((.def_308 (or .def_301 .def_307)))
(let ((.def_317 (or .def_308 .def_316)))
(let ((.def_318 (not .def_317)))
(let ((.def_322 (or .def_318 .def_321)))
(let ((.def_323 (or .def_284 .def_322)))
(let ((.def_34 (not b.counter.0__AT0)))
(let ((.def_32 (not b.counter.1__AT0)))
(let ((.def_35 (and .def_32 .def_34)))
(let ((.def_279 (or .def_35 b.counter.3__AT0)))
(let ((.def_276 (or .def_35 b.counter.2__AT0)))
(let ((.def_37 (not b.counter.2__AT0)))
(let ((.def_275 (or .def_32 .def_37)))
(let ((.def_277 (and .def_275 .def_276)))
(let ((.def_40 (not b.counter.3__AT0)))
(let ((.def_278 (or .def_40 .def_277)))
(let ((.def_280 (and .def_278 .def_279)))
(let ((.def_272 (and .def_69 .def_271)))
(let ((.def_269 (or .def_266 .def_268)))
(let ((.def_259 (or .def_160 .def_172)))
(let ((.def_263 (or b.counter.3__AT1 .def_259)))
(let ((.def_260 (or b.counter.2__AT1 .def_259)))
(let ((.def_258 (or .def_167 .def_172)))
(let ((.def_261 (and .def_258 .def_260)))
(let ((.def_262 (or .def_182 .def_261)))
(let ((.def_264 (and .def_262 .def_263)))
(let ((.def_270 (and .def_264 .def_269)))
(let ((.def_273 (and .def_270 .def_272)))
(let ((.def_78 (<= 0.0 b.delta__AT0)))
(let ((.def_53 (not b.EVENT.0__AT0)))
(let ((.def_51 (not b.EVENT.1__AT0)))
(let ((.def_75 (and .def_51 .def_53)))
(let ((.def_76 (not .def_75)))
(let ((.def_254 (or .def_76 .def_78)))
(let ((.def_255 (or b.EVENT.1__AT0 .def_254)))
(let ((.def_204 (= b.counter.0__AT0 b.counter.0__AT1)))
(let ((.def_202 (= b.counter.1__AT0 b.counter.1__AT1)))
(let ((.def_200 (= b.counter.2__AT0 b.counter.2__AT1)))
(let ((.def_199 (= b.counter.3__AT0 b.counter.3__AT1)))
(let ((.def_201 (and .def_199 .def_200)))
(let ((.def_203 (and .def_201 .def_202)))
(let ((.def_205 (and .def_203 .def_204)))
(let ((.def_251 (or .def_76 .def_205)))
(let ((.def_252 (or b.EVENT.1__AT0 .def_251)))
(let ((.def_211 (= b.x__AT1 b.x__AT0)))
(let ((.def_113 (= b.y__AT0 b.y__AT1)))
(let ((.def_245 (and .def_113 .def_211)))
(let ((.def_131 (= b.speed_x__AT0 b.speed_x__AT1)))
(let ((.def_246 (and .def_131 .def_245)))
(let ((.def_198 (= b.speed_y__AT0 b.speed_y__AT1)))
(let ((.def_247 (and .def_198 .def_246)))
(let ((.def_242 (= b.delta__AT0 0.0 )))
(let ((.def_243 (and .def_75 .def_242)))
(let ((.def_244 (not .def_243)))
(let ((.def_248 (or .def_244 .def_247)))
(let ((.def_249 (or b.EVENT.1__AT0 .def_248)))
(let ((.def_222 (= b.time__AT0 b.time__AT1)))
(let ((.def_234 (and .def_211 .def_222)))
(let ((.def_235 (and .def_113 .def_234)))
(let ((.def_236 (and .def_131 .def_235)))
(let ((.def_237 (and .def_198 .def_236)))
(let ((.def_238 (and .def_205 .def_237)))
(let ((.def_239 (or .def_51 .def_238)))
(let ((.def_225 (* (- 1.0) b.time__AT1)))
(let ((.def_228 (+ b.delta__AT0 .def_225)))
(let ((.def_229 (+ b.time__AT0 .def_228)))
(let ((.def_230 (= .def_229 0.0 )))
(let ((.def_231 (or .def_76 .def_230)))
(let ((.def_232 (or b.EVENT.1__AT0 .def_231)))
(let ((.def_223 (or .def_75 .def_222)))
(let ((.def_224 (or b.EVENT.1__AT0 .def_223)))
(let ((.def_233 (and .def_224 .def_232)))
(let ((.def_240 (and .def_233 .def_239)))
(let ((.def_218 (= .def_76 b.event_is_timed__AT1)))
(let ((.def_216 (= b.event_is_timed__AT0 .def_75)))
(let ((.def_219 (and .def_216 .def_218)))
(let ((.def_206 (and .def_198 .def_205)))
(let ((.def_151 (= b.y__AT0 0.0 )))
(let ((.def_80 (<= 0.0 b.speed_y__AT0)))
(let ((.def_95 (not .def_80)))
(let ((.def_152 (and .def_95 .def_151)))
(let ((.def_207 (or .def_152 .def_206)))
(let ((.def_173 (or b.counter.0__AT0 .def_172)))
(let ((.def_171 (or .def_34 b.counter.0__AT1)))
(let ((.def_174 (and .def_171 .def_173)))
(let ((.def_175 (and .def_160 .def_174)))
(let ((.def_176 (or b.counter.1__AT0 .def_175)))
(let ((.def_170 (or .def_32 b.counter.1__AT1)))
(let ((.def_177 (and .def_170 .def_176)))
(let ((.def_190 (and .def_167 .def_177)))
(let ((.def_191 (or b.counter.2__AT0 .def_190)))
(let ((.def_185 (and .def_34 .def_160)))
(let ((.def_186 (or b.counter.1__AT0 .def_185)))
(let ((.def_187 (and .def_170 .def_186)))
(let ((.def_188 (and b.counter.2__AT1 .def_187)))
(let ((.def_189 (or .def_37 .def_188)))
(let ((.def_192 (and .def_189 .def_191)))
(let ((.def_193 (and b.counter.3__AT1 .def_192)))
(let ((.def_194 (or b.counter.3__AT0 .def_193)))
(let ((.def_178 (and b.counter.2__AT1 .def_177)))
(let ((.def_179 (or b.counter.2__AT0 .def_178)))
(let ((.def_164 (or b.counter.1__AT0 b.counter.1__AT1)))
(let ((.def_162 (and .def_160 b.counter.0__AT1)))
(let ((.def_163 (or .def_32 .def_162)))
(let ((.def_165 (and .def_163 .def_164)))
(let ((.def_168 (and .def_165 .def_167)))
(let ((.def_169 (or .def_37 .def_168)))
(let ((.def_180 (and .def_169 .def_179)))
(let ((.def_183 (and .def_180 .def_182)))
(let ((.def_184 (or .def_40 .def_183)))
(let ((.def_195 (and .def_184 .def_194)))
(let ((.def_154 (* (- 1.0) b.speed_y__AT0)))
(let ((.def_157 (* .def_154 .def_156)))
(let ((.def_158 (= b.speed_y__AT1 .def_157)))
(let ((.def_196 (and .def_158 .def_195)))
(let ((.def_153 (not .def_152)))
(let ((.def_197 (or .def_153 .def_196)))
(let ((.def_208 (and .def_197 .def_207)))
(let ((.def_209 (and .def_113 .def_208)))
(let ((.def_210 (and .def_131 .def_209)))
(let ((.def_212 (and .def_210 .def_211)))
(let ((.def_213 (or .def_75 .def_212)))
(let ((.def_214 (or b.EVENT.1__AT0 .def_213)))
(let ((.def_143 (* b.delta__AT0 .def_118)))
(let ((.def_146 (+ .def_143 .def_145)))
(let ((.def_147 (+ b.speed_y__AT0 .def_146)))
(let ((.def_148 (= .def_147 0.0 )))
(let ((.def_135 (* (- 1.0) b.x__AT1)))
(let ((.def_139 (+ .def_135 b.x__AT0)))
(let ((.def_133 (* b.delta__AT0 b.speed_x__AT0)))
(let ((.def_140 (+ .def_133 .def_139)))
(let ((.def_141 (= .def_140 0.0 )))
(let ((.def_82 (* b.delta__AT0 b.delta__AT0)))
(let ((.def_120 (* .def_82 .def_119)))
(let ((.def_122 (* (- 1.0) b.y__AT1)))
(let ((.def_125 (+ .def_122 .def_120)))
(let ((.def_96 (* b.speed_y__AT0 b.delta__AT0)))
(let ((.def_126 (+ .def_96 .def_125)))
(let ((.def_127 (+ b.y__AT0 .def_126)))
(let ((.def_128 (= .def_127 0.0 )))
(let ((.def_132 (and .def_128 .def_131)))
(let ((.def_142 (and .def_132 .def_141)))
(let ((.def_149 (and .def_142 .def_148)))
(let ((.def_150 (or .def_76 .def_149)))
(let ((.def_215 (and .def_150 .def_214)))
(let ((.def_220 (and .def_215 .def_219)))
(let ((.def_241 (and .def_220 .def_240)))
(let ((.def_250 (and .def_241 .def_249)))
(let ((.def_253 (and .def_250 .def_252)))
(let ((.def_256 (and .def_253 .def_255)))
(let ((.def_257 (and .def_51 .def_256)))
(let ((.def_274 (and .def_257 .def_273)))
(let ((.def_281 (and .def_274 .def_280)))
(let ((.def_114 (not .def_113)))
(let ((.def_86 (* 2.0 b.delta__AT0)))
(let ((.def_87 (* b.speed_y__AT0 .def_86)))
(let ((.def_83 (* g__AT0 .def_82)))
(let ((.def_85 (* (- 1.0) .def_83)))
(let ((.def_88 (+ .def_85 .def_87)))
(let ((.def_89 (* 2.0 b.y__AT0)))
(let ((.def_91 (+ .def_89 .def_88)))
(let ((.def_106 (<= .def_91 0.0 )))
(let ((.def_107 (not .def_106)))
(let ((.def_103 (* b.speed_y__AT0 b.speed_y__AT0)))
(let ((.def_102 (* g__AT0 .def_89)))
(let ((.def_104 (+ .def_102 .def_103)))
(let ((.def_105 (<= .def_104 0.0 )))
(let ((.def_108 (and .def_105 .def_107)))
(let ((.def_109 (and .def_75 .def_108)))
(let ((.def_97 (+ .def_89 .def_96)))
(let ((.def_98 (<= 0.0 .def_97)))
(let ((.def_99 (and .def_95 .def_98)))
(let ((.def_92 (<= 0.0 .def_91)))
(let ((.def_100 (and .def_92 .def_99)))
(let ((.def_70 (<= 0.0 b.y__AT0)))
(let ((.def_81 (and .def_70 .def_80)))
(let ((.def_93 (and .def_81 .def_92)))
(let ((.def_79 (not .def_78)))
(let ((.def_94 (or .def_79 .def_93)))
(let ((.def_101 (or .def_94 .def_100)))
(let ((.def_110 (or .def_101 .def_109)))
(let ((.def_111 (not .def_110)))
(let ((.def_115 (or .def_111 .def_114)))
(let ((.def_116 (or .def_76 .def_115)))
(let ((.def_71 (and .def_69 .def_70)))
(let ((.def_54 (or .def_51 .def_53)))
(let ((.def_44 (or .def_32 .def_34)))
(let ((.def_48 (or b.counter.3__AT0 .def_44)))
(let ((.def_45 (or b.counter.2__AT0 .def_44)))
(let ((.def_43 (or .def_34 .def_37)))
(let ((.def_46 (and .def_43 .def_45)))
(let ((.def_47 (or .def_40 .def_46)))
(let ((.def_49 (and .def_47 .def_48)))
(let ((.def_55 (and .def_49 .def_54)))
(let ((.def_72 (and .def_55 .def_71)))
(let ((.def_38 (and .def_35 .def_37)))
(let ((.def_41 (and .def_38 .def_40)))
(let ((.def_29 (= b.speed_y__AT0 0.0 )))
(let ((.def_26 (= b.y__AT0 10.0 )))
(let ((.def_21 (= b.time__AT0 0.0 )))
(let ((.def_23 (and .def_21 b.event_is_timed__AT0)))
(let ((.def_27 (and .def_23 .def_26)))
(let ((.def_30 (and .def_27 .def_29)))
(let ((.def_42 (and .def_30 .def_41)))
(let ((.def_73 (and .def_42 .def_72)))
(let ((.def_10 (and .def_6 .def_9)))
(let ((.def_16 (or .def_10 b.counter.3__AT2)))
(let ((.def_11 (or b.counter.2__AT2 .def_10)))
(let ((.def_7 (or .def_4 .def_6)))
(let ((.def_12 (and .def_7 .def_11)))
(let ((.def_15 (or .def_12 .def_14)))
(let ((.def_17 (and .def_15 .def_16)))
(let ((.def_18 (not .def_17)))
(let ((.def_74 (and .def_18 .def_73)))
(let ((.def_117 (and .def_74 .def_116)))
(let ((.def_282 (and .def_117 .def_281)))
(let ((.def_324 (and .def_282 .def_323)))
(let ((.def_473 (and .def_324 .def_472)))
(let ((.def_515 (and .def_473 .def_514)))
.def_515)))))))))))))))))))))))))))))))))))))))))))))))))))))))))))))))))))))))))))))))))))))))))))))))))))))))))))))))))))))))))))))))))))))))))))))))))))))))))))))))))))))))))))))))))))))))))))))))))))))))))))))))))))))))))))))))))))))))))))))))))))))))))))))))))))))))))))))))))))))))))))))))))))))))))))))))))))))))))))))))))))))))))))))))))))))))))))))))))))))))))))))))))))))))))))))))))))))))))))))))))))))))))))))))))))))))))))))))))))))))))))))))))
(check-sat)
(exit)
